6 9 19 7 3 16 2 15 14 18 17 1 0 8 13 4 12 5 10 11  
6 9 19 7 16 0 2 3 14 4 18 15 13 1 12 5 11 8 17 10  
6 9 19 7 16 0 3 2 15 14 18 17 1 12 13 4 8 5 10 11  
6 9 19 18 3 17 1 2 7 14 16 15 13 8 5 0 12 4 10 11  
6 9 19 7 16 0 2 3 14 4 18 15 13 1 12 8 5 17 10 11  
6 9 19 7 3 16 2 15 14 18 17 1 0 8 13 4 12 5 10 11  
6 9 19 18 16 0 2 7 15 14 3 17 13 1 12 4 8 5 10 11  
6 9 19 7 3 16 2 15 14 18 17 1 0 8 13 4 12 5 10 11  
6 9 19 7 16 0 3 2 15 14 18 17 1 12 4 13 8 5 10 11  
6 9 19 7 3 16 2 14 18 17 1 15 13 0 8 12 4 5 10 11  
6 9 19 18 3 17 1 7 2 14 16 15 13 8 5 0 12 4 10 11  
6 9 19 3 16 7 2 14 18 17 1 15 13 0 8 4 12 5 10 11  
6 9 19 3 16 7 2 14 17 18 1 15 13 0 8 4 12 5 10 11  
6 9 19 7 3 16 2 17 1 18 14 15 13 8 0 4 12 5 10 11  
6 9 16 3 19 7 2 17 18 14 1 15 13 0 8 4 12 5 10 11  
6 9 16 1 19 7 2 14 3 17 18 15 13 0 8 4 12 5 10 11  
6 9 19 3 18 16 2 14 7 17 1 15 13 0 12 4 8 5 10 11  
9 16 6 3 17 1 7 2 19 18 14 15 13 0 8 4 12 5 10 11  
6 9 16 3 19 7 2 17 18 14 1 15 13 0 8 4 12 5 10 11  
6 9 16 1 19 7 2 3 17 14 18 15 13 0 8 4 12 5 10 11  
6 9 19 18 3 16 2 14 7 17 1 15 13 0 4 12 8 5 10 11  
6 3 19 9 16 7 2 14 18 17 1 15 13 8 0 4 12 5 10 11  
6 9 19 3 16 7 2 14 18 17 1 15 13 0 8 4 12 5 10 11  
6 9 16 3 19 7 2 14 18 17 1 15 13 0 12 4 8 5 10 11  
6 9 19 16 3 7 2 14 18 17 1 15 13 8 0 4 12 5 10 11  
6 9 19 7 16 3 2 14 18 17 1 15 13 8 0 4 12 5 10 11  
6 9 19 7 16 0 2 3 14 4 18 15 13 8 1 12 5 17 10 11  
6 9 19 7 16 0 2 3 14 4 15 18 12 17 13 1 8 5 10 11  
6 9 19 7 16 3 2 14 17 18 1 15 13 0 8 4 12 5 10 11  
6 9 19 7 16 0 3 2 14 4 15 18 12 17 13 1 8 5 10 11  
6 9 19 18 16 7 2 17 3 14 1 15 13 0 8 4 12 5 10 11  
